\ENCODING=ISO-8859-1
\Problem name: IloCplex

Minimize
 obj: 778 x_10 + 94 x_11 + 288 x_12 + 948 x_13 + 740 x_14 + 902 x_15 + 270 x_16
      + 578 x_17 + 772 x_18 + 751 x_19 + 395 x_20 + 893 x_21 + 640 x_22
      + 46 x_23 + 152 x_24 + 714 x_25 + 847 x_26 + 765 x_27 + 408 x_28
      + 67 x_29 + 931 x_30 + 716 x_31
Subject To
 c1:  y_01 + y_10 - x_0  = 0
 c2:  x_0 - Rgc2  = 0
 c3:  y_02 + y_20 - x_1  = 0
 c4:  x_1 - Rgc4  = 0
 c5:  y_03 + y_30 - x_2  = 0
 c6:  x_2 - Rgc6  = 0
 c7:  y_04 + y_40 - x_3  = 0
 c8:  x_3 - Rgc8  = 0
 c9:  y_05 + y_50 - x_4  = 0
 c10: x_4 - Rgc10  = 0
 c11: y_06 + y_60 - x_5  = 0
 c12: x_5 - Rgc12  = 0
 c13: y_07 + y_70 - x_6  = 0
 c14: x_6 - Rgc14  = 0
 c15: y_08 + y_80 - x_7  = 0
 c16: x_7 - Rgc16  = 0
 c17: y_09 + y_90 - x_8  = 0
 c18: x_8 - Rgc18  = 0
 c19: y_010 + y_100 - x_9  = 0
 c20: x_9 - Rgc20  = 0
 c21: y_12 + y_21 - x_10  = 0
 c22: x_10 - Rgc22  = 0
 c23: y_13 + y_31 - x_11  = 0
 c24: x_11 - Rgc24  = 0
 c25: y_14 + y_41 - x_12  = 0
 c26: x_12 - Rgc26  = 0
 c27: y_18 + y_81 - x_13  = 0
 c28: x_13 - Rgc28  = 0
 c29: y_24 + y_42 - x_14  = 0
 c30: x_14 - Rgc30  = 0
 c31: y_29 + y_92 - x_15  = 0
 c32: x_15 - Rgc32  = 0
 c33: y_36 + y_63 - x_16  = 0
 c34: x_16 - Rgc34  = 0
 c35: y_37 + y_73 - x_17  = 0
 c36: x_17 - Rgc36  = 0
 c37: y_45 + y_54 - x_18  = 0
 c38: x_18 - Rgc38  = 0
 c39: y_47 + y_74 - x_19  = 0
 c40: x_19 - Rgc40  = 0
 c41: y_49 + y_94 - x_20  = 0
 c42: x_20 - Rgc42  = 0
 c43: y_59 + y_95 - x_21  = 0
 c44: x_21 - Rgc44  = 0
 c45: y_510 + y_105 - x_22  = 0
 c46: x_22 - Rgc46  = 0
 c47: y_67 + y_76 - x_23  = 0
 c48: x_23 - Rgc48  = 0
 c49: y_68 + y_86 - x_24  = 0
 c50: x_24 - Rgc50  = 0
 c51: y_69 + y_96 - x_25  = 0
 c52: x_25 - Rgc52  = 0
 c53: y_610 + y_106 - x_26  = 0
 c54: x_26 - Rgc54  = 0
 c55: y_78 + y_87 - x_27  = 0
 c56: x_27 - Rgc56  = 0
 c57: y_79 + y_97 - x_28  = 0
 c58: x_28 - Rgc58  = 0
 c59: y_710 + y_107 - x_29  = 0
 c60: x_29 - Rgc60  = 0
 c61: y_89 + y_98 - x_30  = 0
 c62: x_30 - Rgc62  = 0
 c63: y_910 + y_109 - x_31  = 0
 c64: x_31 - Rgc64  = 0
 c65: x_0 + x_1 + x_2 + x_3 + x_4 + x_5 + x_6 + x_7 + x_8 + x_9 + x_10 + x_11
      + x_12 + x_13 + x_14 + x_15 + x_16 + x_17 + x_18 + x_19 + x_20 + x_21
      + x_22 + x_23 + x_24 + x_25 + x_26 + x_27 + x_28 + x_29 + x_30 + x_31
      <= 2
 c66: y_10 + y_20 + y_30 + y_40 + y_50 + y_60 + y_70 + y_80 + y_90 + y_100  = 0
 c67: y_01 + y_02 + y_03 + y_04 + y_05 + y_06 + y_07 + y_08 + y_09 + y_010  = 1
 c68: - 11 y_01 + y_10 + y_12 - 11 y_21 + y_13 - 11 y_31 + y_14 - 11 y_41
      + y_18 - 11 y_81 <= 0
 c69: y_01 + y_21 + y_31 + y_41 + y_81 <= 1
 c70: - y_01 - y_21 - y_31 - y_41 - y_81 + z_1  = 0
 c71: - 11 y_02 + y_20 - 11 y_12 + y_21 + y_24 - 11 y_42 + y_29 - 11 y_92 <= 0
 c72: y_02 + y_12 + y_42 + y_92 <= 1
 c73: - y_02 - y_12 - y_42 - y_92 + z_2  = 0
 c74: - 11 y_03 + y_30 - 11 y_13 + y_31 + y_36 - 11 y_63 + y_37 - 11 y_73 <= 0
 c75: y_03 + y_13 + y_63 + y_73 <= 1
 c76: - y_03 - y_13 - y_63 - y_73 + z_3  = 0
 c77: - 11 y_04 + y_40 - 11 y_14 + y_41 - 11 y_24 + y_42 + y_45 - 11 y_54
      + y_47 - 11 y_74 + y_49 - 11 y_94 <= 0
 c78: y_04 + y_14 + y_24 + y_54 + y_74 + y_94 <= 1
 c79: - y_04 - y_14 - y_24 - y_54 - y_74 - y_94 + z_4  = 0
 c80: - 11 y_05 + y_50 - 11 y_45 + y_54 + y_59 - 11 y_95 + y_510 - 11 y_105
      <= 0
 c81: y_05 + y_45 + y_95 + y_105 <= 1
 c82: - y_05 - y_45 - y_95 - y_105 + z_5  = 0
 c83: - 11 y_06 + y_60 - 11 y_36 + y_63 + y_67 - 11 y_76 + y_68 - 11 y_86
      + y_69 - 11 y_96 + y_610 - 11 y_106 <= 0
 c84: y_06 + y_36 + y_76 + y_86 + y_96 + y_106 <= 1
 c85: - y_06 - y_36 - y_76 - y_86 - y_96 - y_106 + z_6  = 0
 c86: - 11 y_07 + y_70 - 11 y_37 + y_73 - 11 y_47 + y_74 - 11 y_67 + y_76
      + y_78 - 11 y_87 + y_79 - 11 y_97 + y_710 - 11 y_107 <= 0
 c87: y_07 + y_37 + y_47 + y_67 + y_87 + y_97 + y_107 <= 1
 c88: - y_07 - y_37 - y_47 - y_67 - y_87 - y_97 - y_107 + z_7  = 0
 c89: - 11 y_08 + y_80 - 11 y_18 + y_81 - 11 y_68 + y_86 - 11 y_78 + y_87
      + y_89 - 11 y_98 <= 0
 c90: y_08 + y_18 + y_68 + y_78 + y_98 <= 1
 c91: - y_08 - y_18 - y_68 - y_78 - y_98 + z_8  = 0
 c92: - 11 y_09 + y_90 - 11 y_29 + y_92 - 11 y_49 + y_94 - 11 y_59 + y_95
      - 11 y_69 + y_96 - 11 y_79 + y_97 - 11 y_89 + y_98 + y_910 - 11 y_109
      <= 0
 c93: y_09 + y_29 + y_49 + y_59 + y_69 + y_79 + y_89 + y_109 <= 1
 c94: - y_09 - y_29 - y_49 - y_59 - y_69 - y_79 - y_89 - y_109 + z_9  = 0
 c95: - 11 y_010 + y_100 - 11 y_510 + y_105 - 11 y_610 + y_106 - 11 y_710
      + y_107 - 11 y_910 + y_109 <= 0
 c96: y_010 + y_510 + y_610 + y_710 + y_910 <= 1
 c97: - y_010 - y_510 - y_610 - y_710 - y_910 + z_10  = 0
 c98: z_1 + z_2 + z_3 + z_4 + z_5 + z_6 + z_7 + z_8 + z_9 + z_10  = 2
Bounds
 0 <= y_01 <= 1
 0 <= y_10 <= 1
 0 <= x_0 <= 1
 0 <= y_02 <= 1
 0 <= y_20 <= 1
 0 <= x_1 <= 1
 0 <= y_03 <= 1
 0 <= y_30 <= 1
 0 <= x_2 <= 1
 0 <= y_04 <= 1
 0 <= y_40 <= 1
 0 <= x_3 <= 1
 0 <= y_05 <= 1
 0 <= y_50 <= 1
 0 <= x_4 <= 1
 0 <= y_06 <= 1
 0 <= y_60 <= 1
 0 <= x_5 <= 1
 0 <= y_07 <= 1
 0 <= y_70 <= 1
 0 <= x_6 <= 1
 0 <= y_08 <= 1
 0 <= y_80 <= 1
 0 <= x_7 <= 1
 0 <= y_09 <= 1
 0 <= y_90 <= 1
 0 <= x_8 <= 1
 0 <= y_010 <= 1
 0 <= y_100 <= 1
 0 <= x_9 <= 1
 0 <= y_12 <= 1
 0 <= y_21 <= 1
 0 <= x_10 <= 1
 0 <= y_13 <= 1
 0 <= y_31 <= 1
 0 <= x_11 <= 1
 0 <= y_14 <= 1
 0 <= y_41 <= 1
 0 <= x_12 <= 1
 0 <= y_18 <= 1
 0 <= y_81 <= 1
 0 <= x_13 <= 1
 0 <= y_24 <= 1
 0 <= y_42 <= 1
 0 <= x_14 <= 1
 0 <= y_29 <= 1
 0 <= y_92 <= 1
 0 <= x_15 <= 1
 0 <= y_36 <= 1
 0 <= y_63 <= 1
 0 <= x_16 <= 1
 0 <= y_37 <= 1
 0 <= y_73 <= 1
 0 <= x_17 <= 1
 0 <= y_45 <= 1
 0 <= y_54 <= 1
 0 <= x_18 <= 1
 0 <= y_47 <= 1
 0 <= y_74 <= 1
 0 <= x_19 <= 1
 0 <= y_49 <= 1
 0 <= y_94 <= 1
 0 <= x_20 <= 1
 0 <= y_59 <= 1
 0 <= y_95 <= 1
 0 <= x_21 <= 1
 0 <= y_510 <= 1
 0 <= y_105 <= 1
 0 <= x_22 <= 1
 0 <= y_67 <= 1
 0 <= y_76 <= 1
 0 <= x_23 <= 1
 0 <= y_68 <= 1
 0 <= y_86 <= 1
 0 <= x_24 <= 1
 0 <= y_69 <= 1
 0 <= y_96 <= 1
 0 <= x_25 <= 1
 0 <= y_610 <= 1
 0 <= y_106 <= 1
 0 <= x_26 <= 1
 0 <= y_78 <= 1
 0 <= y_87 <= 1
 0 <= x_27 <= 1
 0 <= y_79 <= 1
 0 <= y_97 <= 1
 0 <= x_28 <= 1
 0 <= y_710 <= 1
 0 <= y_107 <= 1
 0 <= x_29 <= 1
 0 <= y_89 <= 1
 0 <= y_98 <= 1
 0 <= x_30 <= 1
 0 <= y_910 <= 1
 0 <= y_109 <= 1
 0 <= x_31 <= 1
 0 <= z_1 <= 1
 0 <= z_2 <= 1
 0 <= z_3 <= 1
 0 <= z_4 <= 1
 0 <= z_5 <= 1
 0 <= z_6 <= 1
 0 <= z_7 <= 1
 0 <= z_8 <= 1
 0 <= z_9 <= 1
 0 <= z_10 <= 1
 0 <= Rgc2 <= 1
 0 <= Rgc4 <= 1
 0 <= Rgc6 <= 1
 0 <= Rgc8 <= 1
 0 <= Rgc10 <= 1
 0 <= Rgc12 <= 1
 0 <= Rgc14 <= 1
 0 <= Rgc16 <= 1
 0 <= Rgc18 <= 1
 0 <= Rgc20 <= 1
 0 <= Rgc22 <= 1
 0 <= Rgc24 <= 1
 0 <= Rgc26 <= 1
 0 <= Rgc28 <= 1
 0 <= Rgc30 <= 1
 0 <= Rgc32 <= 1
 0 <= Rgc34 <= 1
 0 <= Rgc36 <= 1
 0 <= Rgc38 <= 1
 0 <= Rgc40 <= 1
 0 <= Rgc42 <= 1
 0 <= Rgc44 <= 1
 0 <= Rgc46 <= 1
 0 <= Rgc48 <= 1
 0 <= Rgc50 <= 1
 0 <= Rgc52 <= 1
 0 <= Rgc54 <= 1
 0 <= Rgc56 <= 1
 0 <= Rgc58 <= 1
 0 <= Rgc60 <= 1
 0 <= Rgc62 <= 1
 0 <= Rgc64 <= 1
Binaries
 y_01  y_10  x_0  y_02  y_20  x_1  y_03  y_30  x_2  y_04  y_40  x_3  y_05 
 y_50  x_4  y_06  y_60  x_5  y_07  y_70  x_6  y_08  y_80  x_7  y_09  y_90  x_8 
 y_010  y_100  x_9  y_12  y_21  x_10  y_13  y_31  x_11  y_14  y_41  x_12  y_18 
 y_81  x_13  y_24  y_42  x_14  y_29  y_92  x_15  y_36  y_63  x_16  y_37  y_73 
 x_17  y_45  y_54  x_18  y_47  y_74  x_19  y_49  y_94  x_20  y_59  y_95  x_21 
 y_510  y_105  x_22  y_67  y_76  x_23  y_68  y_86  x_24  y_69  y_96  x_25 
 y_610  y_106  x_26  y_78  y_87  x_27  y_79  y_97  x_28  y_710  y_107  x_29 
 y_89  y_98  x_30  y_910  y_109  x_31  z_1  z_2  z_3  z_4  z_5  z_6  z_7  z_8 
 z_9  z_10 
End
